$cookie=/^_ga_/,domain=~nintendo.com
$cookie=/dwac_/,domain=~nintendo.com
$cookie=/dwanonymous_/,domain=~nintendo.com
$cookie=_gcl_au,domain=~nintendo.com
$cookie=articlesLimitDepth,domain=androidpolice.com
$cookie=articlesRead,domain=androidpolice.com
$cookie=cqcid,domain=~nintendo.com
$cookie=dtCookie,domain=~gov.pl
$cookie=initial_referrer,domain=duolingo.cn
$cookie=initial_referrer,domain=duolingo.com
$cookie=optimizelyEndUserId,domain=~nintendo.com
$cookie=wuuid,domain=duolingo.cn
$cookie=wuuid,domain=duolingo.com
$domain=browserleaks.com,permissions=geolocation=()
$removeparam=/^__s=[A-Za-z0-9]{6\,}/,domain=~univis.th-koeln.de
$removeparam=/^__s=[A-Za-z0-9]{6\,}/,domain=~univis.uni-bamberg.de
$removeparam=/^__s=[A-Za-z0-9]{6\,}/,domain=~univis.uni-erlangen.de
$removeparam=/^__s=[A-Za-z0-9]{6\,}/,domain=~univis.uni-kiel.de
$removeparam=/^__s=[A-Za-z0-9]{6\,}/,domain=~univis.uni-luebeck.de
$removeparam=FORM,domain=bing.com
$removeparam=aid,domain=adguard-dns.io
$removeparam=aid,domain=adguard.com
$removeparam=aid,domain=adguard.info
$removeparam=cvid,domain=bing.com,document
$removeparam=cvid,domain=microsoft.com,document
$removeparam=cvid,domain=msn.com,document
$removeparam=cxt,domain=twitter.com
$removeparam=cxt,domain=x.com
$removeparam=dt_dapp,domain=163.com
$removeparam=dt_dapp,domain=douban.com
$removeparam=embeds_referring_euri,domain=youtube.com
$removeparam=embeds_referring_origin,domain=youtube.com
$removeparam=epi,domain=microsoft.com
$removeparam=feature,domain=youtu.be
$removeparam=feature,domain=youtube.com
$removeparam=gclid,domain=youtu.be
$removeparam=gclid,domain=youtube.com
$removeparam=igshid,domain=instagram.com
$removeparam=igshid,domain=threads.net
$removeparam=kw,domain=youtu.be
$removeparam=kw,domain=youtube.com
$removeparam=nclid,domain=microsoft.com
$removeparam=ns_campaign,domain=bbc.com
$removeparam=ns_fee,domain=bbc.com
$removeparam=ns_linkname,domain=bbc.com
$removeparam=ns_mchannel,domain=bbc.com
$removeparam=ns_source,domain=bbc.com
$removeparam=ocid,document,domain=msn.com
$removeparam=ocid,domain=bbc.com
$removeparam=pp,domain=youtu.be
$removeparam=pp,domain=youtube.com
$removeparam=ref_src,domain=twitter.com
$removeparam=ref_src,domain=x.com
$removeparam=ref_url,domain=twitter.com
$removeparam=ref_url,domain=x.com
$removeparam=refsrc,domain=twitter.com
$removeparam=refsrc,domain=x.com
$removeparam=s,domain=twitter.com
$removeparam=s,domain=x.com
$removeparam=si,domain=youtu.be
$removeparam=si,domain=youtube.com
$removeparam=source_ve_path,domain=youtube.com
$removeparam=spm,domain=aliyun.com
$removeparam=spm,domain=sohu.com
$removeparam=union_lens,domain=taobao.com
$removeparam=union_lens,domain=tmall.com
$script,redirect-rule=noop.js,domain=sammobile.com
$script,redirect-rule=noopjs,domain=sammobile.com
$websocket,domain=pornhub.com
&advert_$domain=~zhihu.com
&advertiserid=$domain=~bee.gl
&advertiserid=$domain=~cpashka.ru
&http_referer=$script,xmlhttprequest,domain=~biletomat.pl
&http_referer=$script,xmlhttprequest,domain=~facebook.com
&http_referer=$script,xmlhttprequest,domain=~jobscore.com
*$frame,domain=csdn.net
*$frame,domain=sina.cn
*$image,redirect-rule=1x1.gif,domain=youku.com
*$media,redirect=noopmp3-0.1s,domain=imdb.com,3p
*$script,1p,domain=~kat.am
*$script,1p,domain=~kat.at
*$script,1p,domain=~kat.computer
*$script,1p,domain=~kat.directory
*$script,1p,domain=~kat.pink
*$script,1p,domain=~kat.rip
*$script,1p,domain=~kat.studio
*$script,1p,domain=~kickass.codes
*$script,1p,domain=~kickass.website
*$script,3p,denyallow=cdn77.org|google.com|gstatic.com|pingit.im|recaptcha.net|smartsuppcdn.com|smartsuppchat.com,domain=~pingit.com
*$script,3p,denyallow=cdn77.org|google.com|gstatic.com|pingit.im|recaptcha.net|smartsuppcdn.com|smartsuppchat.com,domain=~pingit.me
*$script,3p,denyallow=cloudflare.com|cloudflare.net|consensu.org|google.com|googleapis.com|gstatic.com|hcaptcha.com|hwcdn.net|recaptcha.net|twitter.com|x.com,domain=~mylink.tel
*$script,3p,denyallow=dotblocking.dummy|google.com|gstatic.com|hwcdn.net|jquery.com,domain=~mixdrop.one
*$script,3p,denyallow=yastatic.net|jsdelivr.net,domain=~oxy.edu
*$script,domain=csdn.net
*$script,domain=sina.cn
*$script,redirect-rule=noopjs,domain=9to5google.com
*$script,redirect-rule=noopjs,domain=9to5mac.com
*$script,redirect-rule=noopjs,domain=9to5toys.com
*$script,redirect-rule=noopjs,domain=sammobile.com
*$strict3p,ipaddress=0.0.0.0,domain=~0.0.0.0
*$strict3p,ipaddress=0.0.0.0,domain=~127.0.0.1
*$strict3p,ipaddress=0.0.0.0,domain=~[::1]
*$strict3p,ipaddress=0.0.0.0,domain=~[::]
*$strict3p,ipaddress=0.0.0.0,domain=~local
*$strict3p,ipaddress=0.0.0.0,domain=~localhost
*$xhr,3p,denyallow=github.com|stripe.com|fpjs.pro,domain=~dev.fingerprint.com
*_ad_$media,domain=youtube.com,3p
-adap.$domain=~l-adap.org
-adnow.$domain=~zappistore.com
-ads-manager/$domain=~wordpress.org
-ads/assets/$script,domain=~web-ads.org
-advertise.$domain=~i-advertise.net
-advertise.$domain=~mb-advertise.gr
-adwords.$domain=~consultant-adwords.com
-adwords.$domain=~consultant-adwords.fr
-adwords.$domain=~expert-adwords.com
-adwords.$domain=~freelance-adwords.com
-adwords.$domain=~freelance-adwords.fr
-cookie-consent.$~script,domain=~django-cookie-consent.readthedocs.io
-euads.$domain=~euads.org
-google-analytics/$3p,domain=~brookson.co.uk
-google-analytics/$3p,domain=~wordpress.org
-google-analytics/$domain=~wordpress.org,badfilter
-monero-miner.$domain=~wp-monero-miner.com
-push-notification.$domain=~github.com
-push-notification/$domain=~github.com
.ad6media.$domain=~ad6media.fr
.adService.$domain=~adservice.com
.adcenter.$domain=~adcenter.nu
.adinject.$domain=~adinject.com
.adlabs.$domain=~adlabs.ru
.adnetwork.$domain=~adnetwork.ie
.adnetwork.$domain=~adnetwork.sk
.adpartner.$domain=~adpartner.cz
.adresult.$domain=~adresult.ch
.adriver.$domain=~adriver.co
.adriver.$~object,domain=~adriver.co
.adsbox.$domain=~adsbox.in
.adserve.$domain=~adserve.com
.advert.$domain=~advert.ae
.advert.$domain=~advert.ge
.advert.$domain=~advert.io
.advert.$domain=~advert.ly
.advert.$domain=~advert.media
.advert.$domain=~advert.org.pl
.com./$popup,domain=pornhub.com
.com/*/status/$removeparam=t,domain=twitter.com
.com/*/status/$removeparam=t,domain=x.com
.com/ad.$domain=~ad-tuning.de
.com/ad/$~image,third-party,domain=~mediaplex.com
.com/ad/$~image,third-party,domain=~mediaplex.com,badfilter
.com/ad/$~image,third-party,domain=~warpwire.com
.com/ad/$~image,third-party,domain=~warpwire.com,badfilter
.com/ad/$~image,third-party,domain=~wsj.com
.com/ad/$~image,third-party,domain=~wsj.com,badfilter
.com/ad/$~third-party,domain=~blogs.technet.microsoft.com
.com/ad/$~third-party,domain=~channel4.com
.com/ad/$~third-party,domain=~cspace.com
.com/ad/$~third-party,domain=~linkedin.com
.com/ad/$~third-party,domain=~mediaplex.com
.com/ads/$image,object,subdocument,domain=~sabotage-films.com
.com/adv/$domain=~adv.asahi.com
.com/adv/$domain=~advantabankcorp.com
.com/adv/$domain=~alltransistors.com
.com/adv/$domain=~archiproducts.com
.com/adv/$domain=~tritondigital.com
.com/playlist?list=$jsonprune=\$..[adPlacements\, adSlots\, playerAds],domain=youtube.com
.com/watch?$xmlhttprequest,jsonprune=\$..[adPlacements\, adSlots\, playerAds],domain=youtube.com
.cookiecuttr.^$domain=~argeweb.nl
.cz/ads/$~object,domain=~hcplzen.cz
.cz/adv/$image,domain=~caoh.cz
.eu/ads/$domain=~scutt.eu
.gif^$image,domain=~mangaku.win
.homad.$domain=~homad.eu
.jp/ads/$third-party,domain=~hs-exp.jp
.js$domain=csdn.net
.js$domain=sina.cn
.microsoft.*/broker.js$domain=~technet.microsoft.com
.monster/images/ads/2.png|$~third-party,domain=monster
.mpd$replace=/<Period.{0\,400}value="Ad"[\s\S]*?<\/Period>//,xmlhttprequest,domain=amazon.com
.mpd$replace=/start="[0-9A-Z.]+?">/>/,xmlhttprequest,domain=amazon.com
.openad.$domain=~openad.lv
.openx.$domain=~openx.com
.org/ad/$domain=~ylilauta.org
.php?affid=$domain=~cancun-discounts.com
.prebid.$domain=~prebid.org
.propellerads.$domain=~propellerads.com
.snowplowanalytics.$domain=~snowplowanalytics.com
.za/ads/$domain=~ananzi.co.za
/1pixel.php$domain=~1lib.domains
/1pixel.php$domain=~singlelogin.app
/1pixel.php$domain=~z-lib.org
/?dm=*&blogid=$script,domain=~wordpress.org
/EfficientFrontier.$domain=~efficientfrontier.com
/WebAd/*$domain=~motortrader.com.my
/WebAnalytics.$domain=~webanalytics.italia.it
/\.(?:com|com\.cn|cn|cc|net|org|me|tv)\/[0-9a-z]{9,}\.js/$script,domain=chinaz.com
/\.(?:com|com\.cn|cn|cc|net|org|me|tv)\/[0-9a-z]{9,}\.js/$script,domain=csdn.net
/\.(?:com|com\.cn|cn|cc|net|org|me|tv)\/[0-9a-z]{9,}\.js/$script,domain=familydoctor.com.cn
/\.(?:com|com\.cn|cn|cc|net|org|me|tv)\/[0-9a-z]{9,}\.js/$script,domain=ithome.com
/\.(?:com|com\.cn|cn|cc|net|org|me|tv)\/[0-9a-z]{9,}\.js/$script,domain=kejixun.com
/\.(?:com|com\.cn|cn|cc|net|org|me|tv)\/[0-9a-z]{9,}\.js/$script,domain=shenchuang.com
/\.(?:com|com\.cn|cn|cc|net|org|me|tv)\/[0-9a-z]{9,}\.js/$script,domain=sina.cn
/\.(?:com|com\.cn|cn|cc|net|org|me|tv)\/[0-9a-z]{9,}\.js/$script,domain=techweb.com.cn
/\.cloudfront\.net\/[a-z]{9,12}\.js$/$script,3p,match-case,domain=wsj.com
/\.com\/watch\?|\.com\/playlist\?list=|\/youtubei\/v.*\/(get_watch|player)\?/$xmlhttprequest,replace=/"(adPlacements|adSlots|playerAds)"/"no_ads"/,domain=youtube.com
/\.coupang\.com\/(?!resources)(?!vp)[A-Za-z0-9-_]{5,}\/(?!cart)(?!product)[A-Za-z0-9-_]+\/(?!api)(?!user)[A-Za-z0-9-_]+\/[A-Za-z0-9-_]+\/(?!products)[A-Za-z0-9-_]+/$domain=~checkout.coupang.com,script,xmlhttprequest,method=get,match-case
/\.coupang\.com\/(?!resources)(?!vp)[A-Za-z0-9-_]{5,}\/(?!cart)(?!product)[A-Za-z0-9-_]+\/(?!api)(?!user)[A-Za-z0-9-_]+\/[A-Za-z0-9-_]+\/(?!products)[A-Za-z0-9-_]+/$domain=~mc.coupang.com,script,xmlhttprequest,method=get,match-case
/\/js\/\d{2,3}eka\d{2,3}\.js$/$script,1p,domain=com
/^https:\/\/[a-z]\d{3}\.[a-z]+\.com\/script\.js$/$script,1p,strict3p,domain=com,redirect=noopjs
/^https:\/\/[a-z]{10,14}\.com\/(?=[%=\?_0-9a-zA-Z]*\*)(?=[%\*=\?_a-zA-Z]*\d)(?=[%\*=\?_0-9a-z]*[A-Z])[%\*=\?_0-9a-zA-Z]{1000,}$/$xhr,3p,domain=~edu
/^https:\/\/[a-z]{10,14}\.com\/(?=[%=\?_0-9a-zA-Z]*\*)(?=[%\*=\?_a-zA-Z]*\d)(?=[%\*=\?_0-9a-z]*[A-Z])[%\*=\?_0-9a-zA-Z]{1000,}$/$xhr,3p,domain=~gov
/^https:\/\/[a-z]{10,14}\.com\/(?=[%=\?_0-9a-zA-Z]*\*)(?=[%\*=\?_a-zA-Z]*\d)(?=[%\*=\?_0-9a-z]*[A-Z])[%\*=\?_0-9a-zA-Z]{1000,}$/$xhr,3p,domain=~jp
/^https:\/\/[a-z]{4,}\.(?:com)\/z-[a-z0-9]{7,10}(\.js)?$/$script,1p,strict1p,domain=com
/^https:\/\/[a-z]{4,}\.(?:to)\/z-[a-z0-9]{7,10}(\.js)?$/$script,1p,strict1p,domain=to
/^https?:\/\/.*\.(jpg|jpeg|gif|png|svg|ico|js|txt|css|srt|vtt|webp)/$popup,domain=bato.to,badfilter
/^https?:\/\/.*\/[a-z0-9A-Z_]{2,15}\.(php|jx|jsx|1ph|jsf|jz|jsm|j$)/$script,subdocument,domain=manga18fx.com
/^https?:\/\/.*\/[a-z0-9A-Z_]{2,15}\.(php|jx|jsx|1ph|jsf|jz|jsm|j$)/$script,subdocument,domain=manhwa18.cc
/^https?:\/\/[0-9a-z]{5,}\.(digital|website|life|guru|uno|cfd)\/[a-z0-9]{6,}\//$script,third-party,xmlhttprequest,domain=~127.0.0.1
/^https?:\/\/[0-9a-z]{5,}\.(digital|website|life|guru|uno|cfd)\/[a-z0-9]{6,}\//$script,third-party,xmlhttprequest,domain=~bitrix24.life
/^https?:\/\/[0-9a-z]{5,}\.(digital|website|life|guru|uno|cfd)\/[a-z0-9]{6,}\//$script,third-party,xmlhttprequest,domain=~ccc.ac
/^https?:\/\/[0-9a-z]{5,}\.(digital|website|life|guru|uno|cfd)\/[a-z0-9]{6,}\//$script,third-party,xmlhttprequest,domain=~jacksonchen666.com
/^https?:\/\/[0-9a-z]{5,}\.(digital|website|life|guru|uno|cfd)\/[a-z0-9]{6,}\//$script,third-party,xmlhttprequest,domain=~lemmy.world
/^https?:\/\/[0-9a-z]{5,}\.(digital|website|life|guru|uno|cfd)\/[a-z0-9]{6,}\//$script,third-party,xmlhttprequest,domain=~localhost
/^https?:\/\/[0-9a-z]{5,}\.(digital|website|life|guru|uno|cfd)\/[a-z0-9]{6,}\//$script,third-party,xmlhttprequest,domain=~scribble.ninja
/^https?:\/\/[0-9a-z]{5,}\.(digital|website|life|guru|uno|cfd)\/[a-z0-9]{6,}\//$script,third-party,xmlhttprequest,domain=~scribble.website
/^https?:\/\/[0-9a-z]{5,}\.(digital|website|life|guru|uno|cfd)\/[a-z0-9]{6,}\//$script,third-party,xmlhttprequest,domain=~traineast.co.uk
/^https?:\/\/[a-z]{5,6}\.com\/script\/bootstrap\.js$/$script,3p,match-case,domain=~edu
/^https?:\/\/[a-z]{5,6}\.com\/script\/bootstrap\.js$/$script,3p,match-case,domain=~gov
/^https?:\/\/[a-z]{5,6}\.com\/script\/bootstrap\.js$/$script,3p,match-case,domain=~jp
/^https?:\/\/[a-z]{5,6}\.com\/script\/jquery\.js$/$script,3p,match-case,domain=~edu
/^https?:\/\/[a-z]{5,6}\.com\/script\/jquery\.js$/$script,3p,match-case,domain=~gov
/^https?:\/\/[a-z]{5,6}\.com\/script\/jquery\.js$/$script,3p,match-case,domain=~jp
/^https?:\/\/[a-z]{5,6}\.com\/script\/pattern\.js$/$script,3p,match-case,domain=~edu
/^https?:\/\/[a-z]{5,6}\.com\/script\/pattern\.js$/$script,3p,match-case,domain=~gov
/^https?:\/\/[a-z]{5,6}\.com\/script\/pattern\.js$/$script,3p,match-case,domain=~jp
/^https?:\/\/[a-z]{7,}\.org\/(?=[\/a-zA-Z]*[+0-9])(?=[+\/0-9a-z]*[A-Z])[+\/0-9a-zA-Z]{140,400}$/$image,3p,match-case,domain=~edu
/^https?:\/\/[a-z]{7,}\.org\/(?=[\/a-zA-Z]*[+0-9])(?=[+\/0-9a-z]*[A-Z])[+\/0-9a-zA-Z]{140,400}$/$image,3p,match-case,domain=~gov
/^https?:\/\/[a-z]{7,}\.org\/(?=[\/a-zA-Z]*[+0-9])(?=[+\/0-9a-z]*[A-Z])[+\/0-9a-zA-Z]{400,1000}$/$frame,3p,match-case,domain=~edu
/^https?:\/\/[a-z]{7,}\.org\/(?=[\/a-zA-Z]*[+0-9])(?=[+\/0-9a-z]*[A-Z])[+\/0-9a-zA-Z]{400,1000}$/$frame,3p,match-case,domain=~gov
/^https?:\/\/cdn\.[a-z]{3,8}\.[a-z]{2,6}\/app\.js$/$script,3p,match-case,domain=~edu
/^https?:\/\/cdn\.[a-z]{3,8}\.[a-z]{2,6}\/app\.js$/$script,3p,match-case,domain=~gov
/^https?:\/\/chatgpt\.com\/ces\/v1\/[a-z]$/$xhr,domain=chatgpt.com,method=post
/^https?:\/\/chatgpt\.com\/ces\/v1\/[a-z]$/$xhr,domain=openai.com,method=post
/^https?:\/\/s3\.*.*\.amazonaws\.com\/[a-f0-9]{45,}\/[a-f,0-9]{8,10}$/$script,third-party,xmlhttprequest,domain=~amazon.com
/ad-local.$domain=~ad-local.de
/ad-minister.$domain=~ad-minister.app
/ad-minister/*$domain=~ad-minister.app
/ad/css/*$domain=~cspace.com
/ad/images/*$image,domain=~studiocalling.it
/ad/img/*$image,domain=~eki-net.com
/ad/img/*$image,domain=~jiji.com
/ad0.$domain=~ad0.com
/ad0.$domain=~ad0.dev
/ad0.$domain=~ad0.org
/ad0.$domain=~vereinslinie.de
/ad1.$domain=~ad1.de
/ad1.$domain=~ad1.in
/ad1.$domain=~vereinslinie.de
/ad16.$domain=~ad16.asmrc.org
/ad2.$domain=~vereinslinie.de
/ad3.$domain=~ad3.eu
/ad3.$domain=~vereinslinie.de
/ad4.$domain=~ad4.wpengine.com
/ad4.$domain=~vereinslinie.de
/adMarketplace.$domain=~admarketplace.brave.com
/adRequest?$domain=~adrequest.com
/ad_banner/*$image,domain=~ccf.com.cn
/ad_images/*$image,domain=~5nd.com
/ad_images/*$image,domain=~dietnavi.com
/ad_rotator/*$image,script,domain=~spokane.exchange
/adbar.$domain=~adbar.fi
/adbar.$domain=~adbar.io
/adbar.$domain=~adbar.jp
/adbase.$domain=~adbase.ai
/adboost.$domain=~adboost.fr
/adboost.$domain=~adboost.io
/adboost.$domain=~adboost.se
/adboost.$domain=~adboost.sellerboost.de
/adbuddy.$domain=~adbuddy.be
/adbuddy.$domain=~adbuddy.beeldstudio.be
/adcase.$domain=~adcase.ru
/adcash.$domain=~adcash.com
/adcenter.$script,domain=~adcenter.capgemini.com
/adcenter.$script,domain=~adcenter.nu
/adcenter.$script,domain=~m-m-g.com
/adcore.$domain=~adcore.ch
/adcore.$domain=~adcore.com.au
/adcore.$domain=~adcore.ua
/adcore_$domain=~adcore.ch
/adcore_$domain=~adcore.com.au
/adcount.$domain=~adcount.com
/adcount.$domain=~adcount.fi
/addata.$domain=~addata.io
/addisplay.$domain=~addisplay.ca
/adevent.$domain=~adevent.com
/adevents.$domain=~adevents.com
/adevents.$domain=~adevents.com.au
/adfactory.$domain=~adfactory.rocks
/adfarm.$~image,third-party,domain=~mediaplex.com
/adfarm.$~third-party,domain=~mediaplex.com
/adflow.$domain=~adflow.com.au
/adflow.$domain=~adflow.genoudsa.ch
/adflow.$domain=~adflow.io
/adflow.$domain=~adflow.marketing
/adflow.$domain=~adflow.pl
/adfox.$domain=~adfox.de
/adfox.$domain=~adfox.group
/adfox.$domain=~adfox.hu
/adframe.$domain=~ettoday.net
/adguard.$domain=~adguard-com.cdn.ampproject.org
/adguard.$domain=~adguard.com
/adguard.$domain=~adguard.mobi
/adguard.$domain=~adguard.oneskyapp.com
/adguard.$domain=~greinr.com
/adhese.$domain=~adhese.com
/adhost.$domain=~adhost.dk
/adhref.$domain=~adhref.com
/adimg.$domain=~adimg.ru
/adinject.$domain=~adinject.com
/adiro.$domain=~adiro.se
/adlabel.$domain=~adlabel.adgoal.de
/adlead.$domain=~adlead.com
/adlib.$domain=~adlib.info
/adlib.$domain=~adlib.mu
/adlib.$domain=~catharijneconvent.nl
/adline.$domain=~adline.co.il
/adlink-$domain=~adlinktech.com
/adlink.$domain=~adlink.guru
/adlink.$domain=~adlinktech.com
/adlink/*$domain=~adlinktech.com
/adman-$domain=~adman-industries.com
/adman.$domain=~adman.com
/adman.$domain=~adman.ee
/adman.$domain=~adman.studio
/admanager.$~object,domain=~admanager.google.com
/admanager/*$~object,~xmlhttprequest,domain=~admanager.line.biz
/admanager/*$~object,~xmlhttprequest,domain=~blog.google
/admanager/*$~object,~xmlhttprequest,domain=~sevio.com
/admaster.$domain=~admaster.biz
/admax.$domain=~admax.cn
/admax.$domain=~admax.co
/admax.$domain=~admax.eu
/admax.$domain=~admax.fi
/admax.$domain=~admax.info
/admax.$domain=~admax.net
/admax.$domain=~admax.nu
/admax.$domain=~admax.org
/admax.$domain=~admax.se
/admax.$domain=~admax.us
/admedia.$domain=~admedia.co.il
/admedia.$domain=~admedia.com
/admedia.$domain=~admedia.net.au
/admob.$domain=~google.com
/adnet.$domain=~adnet.agency
/adnet.$domain=~adnet.hr
/adnetmedia.$domain=~adnetmedia.hu
/adnetwork.$domain=~adnetwork.ai
/adnetwork.$domain=~adnetwork.ie
/adnews.$domain=~adnews.pl
/adnext.$domain=~adnext.pl
/adobe-analytics-$domain=~business.adobe.com
/adops.$domain=~adops.co.il
/adoptions.$domain=~efollett.com
/adpage-$domain=~adpage.com.ua
/adpage-$domain=~adpage.io
/adpage.$domain=~adpage.com.ua
/adpage.$domain=~adpage.io
/adpage/*$domain=~adpage.com.ua
/adpage/*$domain=~adpage.io
/adpages/*$domain=~adpages.com
/adphoto.$domain=~adphoto.eu
/adphoto.$domain=~adphoto.fr
/adphoto.$domain=~adphoto.pl
/adplayer.$domain=~adplayer.media
/adplayer.$script,domain=~adplayer.pro
/adpop.$domain=~adpop.io
/adpop.$domain=~adpop.me
/adpop.$domain=~adpop.ro
/adprime.$domain=~adprime.pl
/adrec.$domain=~adrec.paris-sorbonne.fr
/adrequest.$domain=~adrequest.com
/adright.$domain=~adright.com
/adright.$~xmlhttprequest,domain=~aaahaltontaxi.ca
/adright.$~xmlhttprequest,domain=~adright.com
/adriver.$~object,domain=~adriver.co
/adriver.$~object,domain=~adriver.io
/adrobot.$domain=~adrobot.com.au
/ads/images/*$image,domain=~eoffcn.com
/ads/index/*$~xmlhttprequest,domain=~kuchechina.com
/ads/square-$image,domain=~spoolimports.com
/ads1.$~xmlhttprequest,domain=~ads-i.org
/ads4.$domain=~ads4.city
/adsAPI.$domain=~snap.com
/adsAPI.$domain=~snapchat.com
/ads_images/*$image,domain=~wildlifeauctions.co.za
/adsall.$domain=~adsall.net
/adsbox.$domain=~adsbox.com.sg
/adsbox.$domain=~adsbox.in
/adscale.$domain=~adscale.com
/adscale.$domain=~adscale.io
/adscale.$domain=~adscale.net
/adscale_$domain=~adscale.com
/adsco.$domain=~adsco.com
/adsco.$domain=~adsco.nl
/adsearch.$domain=~adsearch.fr
/adsense.$domain=~adsense.az
/adsense.$domain=~adsense.googleblog.com
/adsense_$domain=~adsense.googleblog.com
/adsense_$domain=~support.google.com
/adseo.$domain=~adseo.com
/adseo.$domain=~adseo.pl
/adservice.$domain=~adservice.io
/adservice.$domain=~github.com
/adservice.$domain=~githubusercontent.com
/adshare.$domain=~adshare.tv
/adshare.$domain=~echosign.com
/adshare/*$domain=~adsharetoolbox.com
/adsign.$domain=~adsign.no
/adsimage/*$image,domain=~kamaz-service.kz
/adsimage/*$image,domain=~theatreticketsdirect.co.uk
/adsimages/*$image,domain=~bdjobstoday.com
/adspace.$domain=~adspace.pro
/adspot.$domain=~adspot.lk
/adspot.$domain=~adspot.lt
/adsquare.$domain=~adsquare.ma
/adsterra.$domain=~adsterra.com
/adtech.$domain=~adtech.md
/adtrack.$domain=~adtrack.ca
/adtrack.$domain=~adtrack.yacast.fr
/adunit/*$domain=~propelmedia.com
/adv/?rad_$domain=~rakuten.co.jp
/adv02.$domain=~dobro.systems
/adv03.$domain=~dobro.systems
/adv4.$domain=~adv4.me
/advanced-ads-$domain=~wordpress.org
/advanced-ads-$script,stylesheet,domain=~transinfo.pl
/advanced-ads-$script,stylesheet,domain=~wordpress.org
/adver.$domain=~adver.biz
/adver.$domain=~adver.by
/adver.$domain=~adver.media
/advert-$domain=~advert-solutions.com
/advert-$domain=~advert-technology.com
/advert-$domain=~advert-technology.ru
/advert.$domain=~advert.ae
/advert.$domain=~advert.ee
/advert.$domain=~advert.io
/advert.$domain=~advert.media
/advert.$domain=~motortrader.com.my
/advert.$~script,~xmlhttprequest,domain=~advert.ae
/advert.$~script,~xmlhttprequest,domain=~advert.club
/advert.$~script,~xmlhttprequest,domain=~advert.com.tr
/advert.$~script,~xmlhttprequest,domain=~advert.ee
/advert.$~script,~xmlhttprequest,domain=~advert.ge
/advert.$~script,~xmlhttprequest,domain=~advert.io
/advert.$~script,~xmlhttprequest,domain=~advert.media
/advert.$~script,~xmlhttprequest,domain=~advert.org.pl
/advert.$~script,~xmlhttprequest,domain=~motortrader.com.my
/advertise-$domain=~ads.microsoft.com
/advertise-$domain=~advertise-solution.nl
/advertise-$domain=~bingads.microsoft.com
/advertise.$domain=~ads.microsoft.com
/advertise.$domain=~advertise.apartments.com
/advertise.$domain=~advertise.directoryofillustration.com
/advertise.$domain=~advertise.isleofskye.com
/advertise.$domain=~advertise.market
/advertise.$domain=~advertise.medillsb.com
/advertise.$domain=~advertise.movem.co.uk
/advertise.$domain=~advertise.ru
/advertise.$domain=~advertise.sobihamilton.ca
/advertise.$domain=~advertise.sphamovingads.com
/advertise.$domain=~advertise.welovebuzz.com
/advertise.$domain=~bingads.microsoft.com
/advertise.$domain=~engineering.com
/advertise/*$domain=~legl.co
/advertisement-$domain=~berlin-airport.de
/advertisement.$domain=~advertisement.solutions.zalando.com
/advertisements/*$domain=~ellefanningfan.net
/advertiser.$domain=~advertiser.adverbid.com
/advertiser.$domain=~advertiser.autorepairconnect.com
/advertiser.$domain=~advertiser.growmobile.com
/advertiser.$domain=~advertiser.livthecity.com
/advertiser.$domain=~advertiser.vungle.com
/advertiser.$domain=~linkpizza.com
/advertiser.$domain=~panel.rightflow.com
/advertiser.$domain=~trialpay.com
/advertiser.$domain=~unity3d.com
/advertiser/*$domain=~ads.microsoft.com
/advertiser/*$domain=~ads.tiktok.com
/advertiser/*$domain=~affili.net
/advertiser/*$domain=~affiliprint.com
/advertiser/*$domain=~bingads.microsoft.com
/advertiser/*$domain=~linkpizza.com
/advertiser/*$domain=~mediance.com
/advertiser/*$domain=~mobileapptracking.com
/advertiser/*$domain=~trialpay.com
/advertisers.$image,script,subdocument,domain=~advertisers.adgoal.de
/advertisers.$image,script,subdocument,domain=~advertisers.adversense.com
/advertisers.$image,script,subdocument,domain=~advertisers.careerone.com.au
/advertisers.$image,script,subdocument,domain=~advertisers.dk
/advertisers.$image,script,subdocument,domain=~advertisers.easyweddings.com.au
/advertisers.$image,script,subdocument,domain=~advertisers.io
/advertisers.$image,script,subdocument,domain=~advertisers.leadia.ru
/advertisers.$image,script,subdocument,domain=~advertisers.ypfboost.ph
/advertisers.$image,script,subdocument,domain=~panel.rightflow.com
/advertisers/*$domain=~datalift360.com
/advertisers/*$domain=~home.tapjoy.com
/advertisers/*$domain=~panel.rightflow.com
/advertisers/*$domain=~propelmedia.com
/advertisers/*$domain=~publisuites.com
/advertising.$domain=~advertising.amazon.ae
/advertising.$domain=~advertising.amazon.ca
/advertising.$domain=~advertising.amazon.cn
/advertising.$domain=~advertising.amazon.co.jp
/advertising.$domain=~advertising.amazon.co.uk
/advertising.$domain=~advertising.amazon.com
/advertising.$domain=~advertising.amazon.com.au
/advertising.$domain=~advertising.amazon.com.mx
/advertising.$domain=~advertising.amazon.de
/advertising.$domain=~advertising.amazon.es
/advertising.$domain=~advertising.amazon.fr
/advertising.$domain=~advertising.amazon.in
/advertising.$domain=~advertising.amazon.it
/advertising.$domain=~advertising.amazon.sa
/advertising.$domain=~advertising.berlin-airport.de
/advertising.$domain=~advertising.bulurum.com
/advertising.$domain=~advertising.byhoxby.com
/advertising.$domain=~advertising.dailymotion.com
/advertising.$domain=~advertising.expedia.com
/advertising.$domain=~advertising.lavenir.net
/advertising.$domain=~advertising.mobile.de
/advertising.$domain=~advertising.nzme.co.nz
/advertising.$domain=~advertising.org.il
/advertising.$domain=~advertising.racingpost.com
/advertising.$domain=~advertising.roku.com
/advertising.$domain=~advertising.scoop.co.nz
/advertising.$domain=~advertising.sevenwestmedia.com.au
/advertising.$domain=~advertising.shpock.com
/advertising.$domain=~advertising.theguardian.com
/advertising.$domain=~advertising.utexas.edu
/advertising.$domain=~advertising.vrisko.gr
/advertising.$domain=~advision.co
/advertising/*$~xmlhttprequest,domain=~advertising.org.il
/advertising/*$~xmlhttprequest,domain=~commercialplanet.eu
/advertising/*$~xmlhttprequest,domain=~kloterfarms.com
/advertising/*$~xmlhttprequest,domain=~temple.edu
/advertising/*$~xmlhttprequest,domain=~themarker.com
/advertising_$domain=~advertising.scoop.co.nz
/adverts.$domain=~adverts.ie
/adverts.$domain=~adverts.org.ua
/adverts.$~script,~xmlhttprequest,domain=~0xacab.org
/adverts.$~script,~xmlhttprequest,domain=~adverts.ie
/adverts.$~script,~xmlhttprequest,domain=~adverts.org.ua
/adverts.$~script,~xmlhttprequest,domain=~github.com
/adverts.$~script,~xmlhttprequest,domain=~gitlab.com
/advideo.$domain=~advideo.pro
/adview.$domain=~adview.mu
/adview.$domain=~adview.online
/advision.$domain=~advision.cl
/advision.$domain=~advision.co
/advision.$domain=~advision.dk
/advt.$domain=~advt.ch
/adw.$domain=~adw.be
/adw.$domain=~adw.olsztyn.pl
/adw.$domain=~adw.org
/adweb.$domain=~adweb.clarkson.edu
/adweb.$domain=~adweb.com.au
/adweb.$domain=~adweb.cz
/adwolf.$domain=~adwolf.ru
/adwords.$domain=~ppc.ee
/adwords.$domain=~radom.pl
/adwords/*$domain=~google.com
/adworks.$domain=~adworks.att.com
/adworks.$domain=~adworks.co.il
/adworks.$domain=~adworks.jobijoba.io
/adworks.$domain=~adworks.net
/adx.$domain=~adx.co.nz
/adx.$domain=~adx.cx
/adx.$domain=~adx.nz
/adx.$domain=~adx.ru
/adx.$domain=~adx.tribefire.com
/adx.$domain=~adx.uk.com
/adx.$domain=~adx.world
/adx.$domain=~adx.wowfi.com
/adx.$domain=~journals.uchicago.edu
/affiliation/*$domain=~esi.evetech.net
/affilinet/*$domain=~affilinet-inside.com
/affilinet/*$domain=~affilinet-inside.fr
/analyticReportingAS3.$domain=~miniclip.com
/analytics.prod.$domain=~fifteen.eu
/analytics/event$domain=~app.diagrams.net
/analytics/v1/*$domain=~my.leadpages.net
/analytics/video_$domain=~twitch.tv
/annonse.$domain=~annonse.nu
/apc/trans.gif?$domain=live.com
/apc/trans.gif?$domain=office.com
/api.ads.$script,domain=~ads.instacart.com
/api.ads.$script,domain=~www.ads.com
/api/log?^$domain=~graph.baidu.com
/api/v1/EndpointTracker$domain=live.com
/api/v1/EndpointTracker$domain=office.com
/arc/subs/p.min.js$script,~third-party,domain=~latercera.com
/arc/subs/p.min.js$script,~third-party,domain=~nzherald.co.nz
/assets/ads/*$~image,domain=~outlook.live.com
/assets/sidebar/*$domain=v2ex.com
/asyncjs.$domain=~asyncjs.com
/attachments/ad/*$domain=~edushida.com
/authedmine.$script,domain=~authedmine.com
/banner-ads/*$image,domain=~1agosto.com
/banner.php$~xmlhttprequest,domain=~research.hchs.hc.edu.tw
/banner_ads/*$~xmlhttprequest,domain=~clickbd.com
/bannerads/*$~xmlhttprequest,domain=~coldwellbankerhomes.com
/bottom-ads.jpg$image,domain=~saltwaterisland.com
/btn_sns_$image,domain=~colopl.co.jp
/btn_sns_$image,domain=~nikkan-gendai.com
/bugsnag.min.js$domain=adblock-tester.com
/cdn-cgi/pe/bag2?*.google-analytics.com
/cdn-cgi/pe/bag2?*google-analytics.com
/cdn-cgi/pe/bag2?*newrelic.com
/cdn-cgi/pe/bag2?*optimizely.com
/cdn-cgi/pe/bag2?*p.tanx.com$domain=~hdwan.net
/clarity-*.js$domain=~clarity-labs.kaminario.com
/clickability.$domain=~clickability.com.au
/collect/sdk?$domain=~iugu.com
/com.snowplowanalytics.$domain=~snowplowanalytics.com
/com.snowplowanalytics.snowplow/*$domain=~7plus.com.au
/common/cf/*$image,object,domain=~bingfeng.tw
/common/cf/*$image,object,domain=~dahuaiji.com
/common/cf/*$image,object,domain=~pcbeta.com
/common/cf/*$image,object,domain=~ztgame.com
/conad.$domain=~conad.it
/conad_$domain=~conad.it
/cookie-banner$domain=~github.com
/cookie-banner$domain=~praxismarketing-institut.com
/cookie-consent/*$domain=~argeweb.nl
/cookie-consent/*$domain=~europa.eu
/cookie-consent/*$domain=~geenstijl.nl
/cookie-consent/*$domain=~linkedin.com
/cookieconsent.$~stylesheet,domain=~alginor.no
/cookieconsent.$~stylesheet,domain=~crm.cat
/cookieconsent.$~stylesheet,domain=~data.gov.lv
/cookieconsent.$~stylesheet,domain=~download.pixelexperience.org
/cookieconsent.$~stylesheet,domain=~khl.ru
/cookieconsent.$~stylesheet,domain=~kundenkonto.lidl-connect.de
/cookieconsent.$~stylesheet,domain=~retrogames.cc
/cookieconsent.$~stylesheet,domain=~shmoop.com
/cookiecontrol-$domain=~msi.com
/cookiemanagement.js$domain=~ep.knou.ac.kr
/count.do?$domain=~its.busan.go.kr
/counter?$domain=amazon.com
/criteo.$domain=~criteo.blotout.io
/criteo.$domain=~criteo.github.io
/criteo.$domain=~criteo.investorroom.com
/crm/site_button/loader_*.js$domain=~tvoe.live
/crypto-webminer.$domain=~crypto-webminer.com
/dataunlocker$script,1p,domain=~dataunlocker.com
/discourse-fingerprint-$domain=~btt.community
/dist/gdpr-$domain=~express.co.uk
/duilian.$domain=~388g.com
/duilian.$domain=~msra.cn
/duilian.$domain=~supfree.net
/easyads.$domain=~easyads.bg
/easyads.$domain=~easyads.eu
/easyads.$domain=~easyads.io
/easyads.$domain=~easyads.lk
/easyads/*$domain=~easyads.eu
/easyads/*$domain=~easyads.io
/easyads/*$domain=~easyads.lk
/edgemesh.*.js$script,domain=~edgemesh.com
/edgemesh.*.js$script,domain=~edgeno.de
/eroadvertising.$domain=~eroadvertising.com
/estat.$domain=~estat.ly
/estat.$domain=~estat.stat.ee
/etology.$domain=~etology.com
/euads/*$domain=~euads.org
/event-tracking/*$domain=~github.com
/evolok/*ev-em.min.js$script,domain=~vikatan.com
/exoclick.$domain=~exoclick.bamboohr.co.uk
/exoclick.$domain=~exoclick.com
/exoclick.$domain=~exoclick.kayako.com